start = 1;
limit = 6;
n = 14;
m=[|-1,9,-1,3,-1,-1,1,20,-1,12,-1,-1,8,-1,
|-1,-1,11,5,-1,-1,-1,4,2,-1,7,-1,2,4,
|-1,15,-1,-1,5,-1,-1,2,-1,14,-1,1,-1,18,
|-1,-1,-1,-1,17,10,14,-1,11,17,-1,9,4,3,
|8,14,-1,-1,-1,-1,18,10,18,-1,-1,-1,-1,17,
|-1,11,-1,5,-1,-1,17,8,6,-1,-1,6,14,9,
|-1,-1,14,-1,-1,-1,-1,-1,16,12,20,16,-1,3,
|6,-1,-1,-1,-1,-1,-1,-1,6,4,-1,14,-1,-1,
|-1,17,-1,-1,3,-1,-1,12,-1,18,-1,15,-1,6,
|20,-1,-1,-1,10,-1,9,0,-1,-1,-1,-1,-1,-1,
|-1,16,-1,18,1,-1,-1,-1,-1,11,-1,17,14,-1,
|-1,17,13,-1,9,-1,-1,14,8,14,10,-1,0,-1,
|-1,6,-1,11,-1,-1,-1,5,-1,6,-1,12,-1,3,
|-1,15,-1,-1,12,-1,-1,12,-1,-1,-1,-1,-1,-1,
|]
;